SDVRP instances/custom_instances/p02_7_split0.vrp
NAME:p02_7_split
BEST_KNOWN: 0
COMMENT: 0
DIMENSION: 393
CAPACITY: 140
EDGE_WEIGHT_FORMAT: FUNCTION
EDGE_WEIGHT_TYPE: EXACT_2D
NODE_COORD_SECTION
1 0.00000 0.00000
2 16 -40
3 16 -40
4 16 -40
5 16 -40
6 16 -40
7 16 -40
8 16 -40
9 1 -22
10 1 -22
11 1 -22
12 1 -22
13 1 -22
14 -38 47
15 -38 47
16 -38 47
17 -38 47
18 14 20
19 14 20
20 14 20
21 14 20
22 14 20
23 14 20
24 14 20
25 7 49
26 7 49
27 7 49
28 7 49
29 7 49
30 7 49
31 -5 -35
32 -5 -35
33 -5 -35
34 -5 -35
35 -5 -35
36 -5 -35
37 24 -2
38 24 -2
39 24 -2
40 24 -2
41 24 -2
42 24 -2
43 24 -2
44 -26 16
45 -26 16
46 -26 16
47 -26 16
48 -26 16
49 6 42
50 6 42
51 6 42
52 6 42
53 6 42
54 6 42
55 -34 15
56 -34 15
57 -34 15
58 49 9
59 49 9
60 49 9
61 49 9
62 49 9
63 49 9
64 49 9
65 3 -34
66 3 -34
67 3 -34
68 3 -34
69 3 -34
70 3 -34
71 30 -38
72 30 -38
73 30 -38
74 30 -38
75 12 44
76 12 44
77 12 44
78 12 44
79 12 44
80 12 44
81 12 44
82 -12 -48
83 -12 -48
84 -12 -48
85 28 6
86 28 6
87 34 -11
88 34 -11
89 34 -11
90 34 -11
91 34 -11
92 34 -11
93 -41 17
94 12 -13
95 12 -13
96 2 33
97 2 33
98 2 33
99 -39 -43
100 -39 -43
101 -39 -43
102 -39 -43
103 9 3
104 9 3
105 9 3
106 9 3
107 9 3
108 9 3
109 9 3
110 8 15
111 8 15
112 8 15
113 8 15
114 8 15
115 35 -32
116 35 -32
117 35 -32
118 35 -32
119 -37 44
120 -37 44
121 -37 44
122 -37 44
123 -37 44
124 -37 44
125 -37 44
126 -37 44
127 -37 44
128 25 -33
129 25 -33
130 25 -33
131 25 -33
132 25 -33
133 25 -33
134 49 -45
135 49 -45
136 49 -45
137 26 -30
138 26 -30
139 26 -30
140 26 -30
141 26 -30
142 26 -30
143 26 -30
144 26 -30
145 26 -30
146 4 -23
147 4 -23
148 4 -23
149 4 -23
150 4 -23
151 4 -23
152 4 -23
153 4 -23
154 -4 -28
155 -4 -28
156 -4 -28
157 -4 -28
158 -4 -28
159 -4 -28
160 -4 -28
161 20 -34
162 20 -34
163 20 -34
164 20 -34
165 20 -34
166 20 -34
167 20 -34
168 21 -50
169 21 -50
170 21 -50
171 21 -50
172 21 -50
173 21 -50
174 21 -50
175 21 -50
176 21 -50
177 43 36
178 43 36
179 24 10
180 24 10
181 24 10
182 24 10
183 24 10
184 24 10
185 28 10
186 28 10
187 28 10
188 40 23
189 40 23
190 40 23
191 40 23
192 40 23
193 40 23
194 -4 -16
195 -4 -16
196 -4 -16
197 -4 -16
198 -4 -16
199 20 -19
200 20 -19
201 20 -19
202 20 -19
203 27 42
204 27 42
205 27 42
206 -25 44
207 -25 44
208 -32 -43
209 -32 -43
210 -32 -43
211 -32 -43
212 -32 -43
213 -32 -43
214 -32 -43
215 -32 -43
216 27 -15
217 27 -15
218 27 -15
219 -10 -25
220 -10 -25
221 -10 -25
222 -10 -25
223 -10 -25
224 -2 42
225 -2 42
226 -25 -32
227 -25 -32
228 -34 21
229 -34 21
230 -34 21
231 -34 21
232 -34 21
233 -34 21
234 -45 21
235 -34 -13
236 -34 -13
237 -34 -13
238 -34 -13
239 -34 -13
240 -34 -13
241 -26 -36
242 -26 -36
243 -26 -36
244 -26 -36
245 -26 -36
246 -26 -36
247 -20 -32
248 -20 -32
249 -20 -32
250 -20 -32
251 -23 -42
252 -23 -42
253 -23 -42
254 -23 -42
255 -23 -42
256 -38 -4
257 -38 -4
258 -38 -4
259 -38 -4
260 -38 -4
261 13 -25
262 13 -25
263 13 -25
264 13 -25
265 13 -25
266 13 -25
267 13 -25
268 13 -25
269 13 -25
270 -26 -21
271 -26 -21
272 -26 -21
273 -26 -21
274 -26 -21
275 21 -7
276 21 -7
277 21 -7
278 21 -7
279 21 -7
280 21 -7
281 21 -7
282 21 -7
283 21 -7
284 -35 38
285 -35 38
286 -35 38
287 -13 36
288 -13 36
289 -13 36
290 -13 36
291 -13 36
292 -13 27
293 -13 27
294 -13 27
295 -13 27
296 -13 27
297 -13 27
298 -13 27
299 -13 27
300 -29 34
301 -29 34
302 -29 34
303 -29 34
304 -29 34
305 28 30
306 28 30
307 28 30
308 28 30
309 28 30
310 28 30
311 28 30
312 28 30
313 -17 -48
314 -17 -48
315 -17 -48
316 -17 -48
317 -17 -48
318 49 45
319 49 45
320 49 45
321 49 45
322 49 45
323 49 45
324 49 45
325 28 -37
326 28 -37
327 28 -37
328 28 -37
329 28 -37
330 38 -30
331 38 -30
332 38 -30
333 38 -30
334 38 -30
335 38 -30
336 38 -30
337 -45 -1
338 -45 -1
339 -45 -1
340 -45 -1
341 -45 -1
342 -45 -1
343 -45 -1
344 -45 -1
345 2 38
346 2 38
347 2 38
348 2 38
349 2 38
350 2 38
351 2 38
352 2 38
353 42 -3
354 42 -3
355 42 -3
356 42 -3
357 42 -3
358 42 -3
359 21 31
360 21 31
361 21 31
362 21 31
363 21 31
364 21 31
365 0 30
366 0 30
367 0 30
368 0 30
369 0 30
370 4 -22
371 4 -22
372 -17 6
373 -17 6
374 8 -23
375 8 -23
376 8 -23
377 8 -23
378 30 24
379 30 24
380 30 24
381 30 24
382 30 24
383 -32 -48
384 -32 -48
385 -32 -48
386 -32 -48
387 -32 -48
388 -32 -48
389 -32 -48
390 45 38
391 45 38
392 45 38
393 45 38
DEMAND_SECTION
1 0
2 14
3 7
4 1
5 1
6 1
7 1
8 1
9 14
10 1
11 1
12 1
13 1
14 28
15 28
16 7
17 1
18 14
19 1
20 1
21 1
22 1
23 1
24 1
25 28
26 7
27 1
28 1
29 1
30 1
31 28
32 7
33 1
34 1
35 1
36 1
37 28
38 14
39 1
40 1
41 1
42 1
43 1
44 28
45 1
46 1
47 1
48 1
49 28
50 28
51 1
52 1
53 1
54 1
55 28
56 7
57 1
58 28
59 1
60 1
61 1
62 1
63 1
64 1
65 28
66 14
67 1
68 1
69 1
70 1
71 28
72 7
73 1
74 1
75 28
76 14
77 1
78 1
79 1
80 1
81 1
82 28
83 28
84 7
85 14
86 7
87 28
88 14
89 7
90 1
91 1
92 1
93 28
94 14
95 7
96 14
97 7
98 1
99 28
100 14
101 1
102 1
103 28
104 28
105 1
106 1
107 1
108 1
109 1
110 14
111 7
112 1
113 1
114 1
115 28
116 7
117 1
118 1
119 28
120 28
121 7
122 1
123 1
124 1
125 1
126 1
127 1
128 14
129 7
130 1
131 1
132 1
133 1
134 28
135 14
136 7
137 28
138 14
139 7
140 1
141 1
142 1
143 1
144 1
145 1
146 28
147 28
148 1
149 1
150 1
151 1
152 1
153 1
154 28
155 7
156 1
157 1
158 1
159 1
160 1
161 28
162 14
163 7
164 1
165 1
166 1
167 1
168 28
169 28
170 7
171 1
172 1
173 1
174 1
175 1
176 1
177 14
178 7
179 28
180 14
181 7
182 1
183 1
184 1
185 28
186 28
187 14
188 28
189 1
190 1
191 1
192 1
193 1
194 28
195 1
196 1
197 1
198 1
199 28
200 14
201 1
202 1
203 28
204 7
205 1
206 28
207 14
208 28
209 28
210 1
211 1
212 1
213 1
214 1
215 1
216 28
217 28
218 14
219 28
220 28
221 1
222 1
223 1
224 28
225 7
226 28
227 1
228 28
229 28
230 7
231 1
232 1
233 1
234 28
235 28
236 1
237 1
238 1
239 1
240 1
241 28
242 7
243 1
244 1
245 1
246 1
247 14
248 7
249 1
250 1
251 28
252 14
253 1
254 1
255 1
256 28
257 7
258 1
259 1
260 1
261 28
262 28
263 7
264 1
265 1
266 1
267 1
268 1
269 1
270 28
271 14
272 1
273 1
274 1
275 28
276 28
277 7
278 1
279 1
280 1
281 1
282 1
283 1
284 14
285 7
286 1
287 14
288 1
289 1
290 1
291 1
292 28
293 14
294 7
295 1
296 1
297 1
298 1
299 1
300 28
301 14
302 7
303 1
304 1
305 28
306 14
307 7
308 1
309 1
310 1
311 1
312 1
313 28
314 28
315 7
316 1
317 1
318 28
319 1
320 1
321 1
322 1
323 1
324 1
325 28
326 28
327 7
328 1
329 1
330 14
331 1
332 1
333 1
334 1
335 1
336 1
337 28
338 7
339 1
340 1
341 1
342 1
343 1
344 1
345 28
346 28
347 7
348 1
349 1
350 1
351 1
352 1
353 14
354 7
355 1
356 1
357 1
358 1
359 28
360 14
361 1
362 1
363 1
364 1
365 28
366 14
367 1
368 1
369 1
370 28
371 7
372 28
373 7
374 14
375 7
376 1
377 1
378 28
379 28
380 7
381 1
382 1
383 14
384 1
385 1
386 1
387 1
388 1
389 1
390 28
391 14
392 7
393 1
DEPOT_SECTION
1
-1
EOF