SDVRP instances/custom_instances/p02_7_split0.sol
392 -2 1 3 5 4 7 160 162 163 164 161 165 166 263 264 268 266 260 261 265 267 -6 167 173 170 171 172 174 169 175 168 133 135 134 334 331 333 330 329 335 332 -11 9 12 8 10 369 370 147 149 148 151 145 146 152 150 374 376 375 373 -13 16 15 14 126 122 124 120 123 121 118 119 125 303 302 -18 22 20 361 359 360 358 363 362 204 202 203 305 310 304 306 308 309 311 307 -21 23 19 17 75 77 80 79 74 76 78 24 29 28 27 25 26 223 224 367 366 -40 37 36 42 41 38 39 275 274 281 282 278 279 276 277 280 -51 48 53 50 52 49 344 349 346 351 347 350 348 345 96 97 -65 67 68 66 69 64 31 33 35 30 32 34 154 153 158 156 159 155 157 -84 186 184 185 182 180 178 181 183 179 104 105 -85 355 352 354 353 356 357 60 61 63 57 62 59 58 377 378 380 379 381 -87 90 91 89 88 86 215 216 217 93 -94 201 200 198 199 144 136 143 142 139 138 141 137 140 130 129 132 131 128 127 262 -99 101 98 100 383 384 385 382 387 388 386 208 214 213 209 211 212 210 207 244 243 -106 107 102 108 103 113 111 109 112 110 95 365 364 368 -115 117 114 116 73 72 71 70 326 324 327 328 325 -177 176 391 390 392 389 322 320 321 323 319 317 318 192 189 188 190 191 187 -193 222 218 220 221 219 273 272 271 270 269 -197 195 196 194 83 82 81 313 312 315 316 314 -225 226 242 241 245 240 250 251 253 254 252 246 249 248 247 -227 228 229 231 232 230 233 92 56 55 372 -234 238 236 239 237 235 340 342 336 338 341 343 337 339 257 259 256 255 258 -293 297 289 290 287 288 286 205 206 284 285 283 299 301 300 -295 298 296 294 291 292 43 45 46 47 44 54 371 0 





OBJ=
2321.397
BEST_KNOWN=
0.000